%chk=hhtc_smd.chk
%mem=10gb
%nprocshared=28
#opt freq wb97xd def2svp scf=xqc scrf=(smd,solvent=2-propanol)

[No Title]

0 1
   C     0.444094    4.196962    0.000087
   C     0.056551    2.847363    0.000122
   C    -1.319052    2.517986    0.000048
   C    -2.267637    3.555288   -0.000063
   C    -1.868972    4.881682   -0.000100
   C    -0.500448    5.213258   -0.000023
   C     1.048975    1.817519    0.000244
   C     1.879055    0.932182    0.000316
   C     2.846306   -0.120223    0.000142
   C     4.218132    0.185206    0.000048
   C     5.168506   -0.822278   -0.000084
   C     4.772996   -2.173957   -0.000132
   C     3.420922   -2.486061   -0.000043
   C     2.445349   -1.476394    0.000090
   C     1.057285   -1.821758    0.000198
   C    -0.123617   -2.100221    0.000261
   C    -1.519013   -2.414309    0.000124
   C    -1.936094   -3.754880    0.000086
   C    -3.283736   -4.085314   -0.000016
   C    -4.245302   -3.056467   -0.000093
   C    -3.849919   -1.729012   -0.000065
   C    -2.487443   -1.383481    0.000054
   C    -1.747753    1.154339    0.000078
   C    -2.096090   -0.008587    0.000081
   O    -2.715877    5.945463   -0.000205
   O    -0.119674    6.503355   -0.000058
   O     6.512583   -0.618785   -0.000193
   O     5.700890   -3.147326   -0.000259
   O    -3.673316   -5.372478   -0.000039
   O    -5.537550   -3.479405   -0.000226
   H     1.500913    4.464988    0.000145
   H    -3.331277    3.304748   -0.000122
   H     4.530962    1.232198    0.000081
   H     3.125531   -3.535579   -0.000072
   H    -1.199759   -4.558956    0.000155
   H    -4.601214   -0.935474   -0.000144
   H    -3.631056    5.652180   -0.000340
   H    -0.916287    7.049096   -0.000150
   H     6.714800    0.320824    0.000176
   H     6.571507   -2.729715   -0.000242
   H    -4.638595   -5.392860   -0.000032
   H    -6.140550   -2.731113    0.000230


