%chk=ketone.chk
%mem=10gb
%nprocshared=28
#opt freq wb97xd def2svp scf=xqc

[No Title]

0 1
   C  20.386391 -13.521113   0.127480
   C  20.404111 -14.911133   0.119548
   C  21.615550 -15.653395   0.118644
   C  22.859326 -14.943785   0.126206
   C  22.822392 -13.521283   0.134248
   C  21.624408 -12.819891   0.134933
   C  21.613992 -17.116886   0.110119
   C  22.848659 -17.835171   0.108862
   C  24.120424 -17.111210   0.116758
   C  24.123222 -15.679314   0.125572
   C  20.403931 -17.862008   0.102934
   C  20.371969 -19.253858   0.094669
   C  21.605463 -19.971456   0.093024
   C  22.799278 -19.255312   0.100090
   C  25.363716 -17.798656   0.116166
   C  26.581023 -17.127529   0.124057
   C  26.579687 -15.704718   0.133089
   C  25.378440 -15.008857   0.133679
   O  21.504296 -11.451585   0.142389
   O  19.216153 -12.829057   0.128158
   O  19.228376 -19.990862   0.087958
   O  21.530611 -21.329950   0.084599
   O  27.760365 -17.803908   0.123379
   O  27.829015 -15.133811   0.140824
   H  19.427659 -15.412472   0.113894
   H  23.757282 -12.940250   0.140086
   H  19.436409 -17.337270   0.103874
   H  23.733835 -19.836710   0.098737
   H  25.409838 -18.895319   0.109491
   H  25.422140 -13.908980   0.140843
   H  22.390003 -11.046487   0.147070
   H  19.454777 -11.879261   0.134212
   H  18.472736 -19.374261   0.090068
   H  22.440344 -21.681510   0.084453
   H  28.468723 -17.127688   0.129718
   H  27.744128 -14.163559   0.145870


