%chk=hhtc_ni_smd.chk
%mem=10gb
%nprocshared=28
#opt freq wb97xd def2svp scf=xqc scrf=(smd,solvent=2-propanol)

[No Title]

2 3 
   C    0.567233    4.198395    0.001025
   C    0.606373    2.817748    0.000818
   C    1.883863    2.112236   -0.000224
   C    3.111642    2.844538   -0.001089
   C    3.062865    4.209298   -0.000903
   C    1.782877    4.900131    0.000142
   C   -0.538983    1.955673    0.001424
   C   -1.589714    1.278603    0.001390
   C   -2.834747    0.582016    0.000847
   C   -4.082912    1.227444    0.001319
   C   -5.240244    0.467079    0.000441
   C   -5.177172   -0.963612   -0.000952
   C   -3.943279   -1.606887   -0.001380
   C   -2.772065   -0.846187   -0.000477
   C   -1.461499   -1.424574   -0.000704
   C   -0.354543   -1.999745   -0.000706
   C    0.870607   -2.752177   -0.000385
   C    0.958403   -4.128181   -0.000072
   C    2.236510   -4.714707    0.000321
   C    3.445242   -3.908703    0.000408
   C    3.365527   -2.544825    0.000098
   C    2.074824   -1.930313   -0.000256
   C    1.717207    0.743271   -0.000178
   C    1.781560   -0.581997   -0.000518
   O    4.087056    5.062409   -0.001679
   O    1.771381    6.197806    0.000525
   O   -6.486218    0.941446    0.000757
   O   -6.288116   -1.670991   -0.001804
   O    2.343917   -6.007083    0.000564
   O    4.544876   -4.662638    0.000790
   H   -0.365900    4.761346    0.001877
   H    4.064533    2.313030   -0.001882
   H   -4.138792    2.317446    0.002360
   H   -3.918464   -2.696560   -0.002408
   H    0.081390   -4.775430   -0.000156
   H    4.264659   -1.926645    0.000154
   H    4.955375    4.640946   -0.002257
   H    2.676668    6.558474   -0.000283
   H   -6.536478    1.904592    0.001618
   H   -7.064810   -1.090416   -0.001366
   H    3.278615   -6.283603    0.000793
   H    5.370269   -4.162443    0.000978
  Ni    0.026154   -0.001981    0.000179


